Version identifier: 12.10.0.0 | 2019-11-26 | 843d4de
CPXPARAM_WorkMem                                 16384
CPXPARAM_MIP_Limits_TreeMemory                   24576
Tried aggregator 2 times.
MIP Presolve eliminated 8 rows and 0 columns.
MIP Presolve added 16 rows and 0 columns.
Aggregator did 30 substitutions.
Reduced MIP has 50 rows, 50 columns, and 218 nonzeros.
Reduced MIP has 50 binaries, 0 generals, 0 SOSs, and 0 indicators.
Presolve time = 0,00 sec. (0,40 ticks)
Found incumbent of value 776,000000 after 0,00 sec. (0,47 ticks)
Probing time = 0,00 sec. (0,15 ticks)
Tried aggregator 1 time.
Detecting symmetries...
Reduced MIP has 50 rows, 50 columns, and 218 nonzeros.
Reduced MIP has 50 binaries, 0 generals, 0 SOSs, and 0 indicators.
Presolve time = 0,00 sec. (0,17 ticks)
Probing time = 0,00 sec. (0,15 ticks)
Clique table members: 209.
MIP emphasis: balance optimality and feasibility.
MIP search method: dynamic search.
Parallel mode: deterministic, using up to 16 threads.
Root relaxation solution time = 0,00 sec. (0,09 ticks)

        Nodes                                         Cuts/
   Node  Left     Objective  IInf  Best Integer    Best Bound    ItCnt     Gap

*     0+    0                          776,0000        0,0000           100,00%
*     0+    0                          646,0000        0,0000           100,00%
      0     0      403,0000    43      646,0000      403,0000       15   37,62%
      0     0      435,2000    43      646,0000     Cuts: 112       52   32,63%
      0     0      455,0800    43      646,0000     Cuts: 112       82   29,55%
      0     0      459,0625    43      646,0000     Cuts: 104       88   28,94%
      0     0      459,8396    43      646,0000      Cuts: 11       97   28,82%
      0     0      461,5726    43      646,0000      Cuts: 66      102   28,55%
Detecting symmetries...
      0     0      466,0208    43      646,0000   ZeroHalf: 8      120   27,86%
      0     0      467,1624    43      646,0000      Cuts: 33      127   27,68%
      0     0      468,5368    43      646,0000   ZeroHalf: 4      137   27,47%
      0     0      469,7143    43      646,0000      Cuts: 37      150   27,29%
      0     0      470,1818    43      646,0000       Cuts: 6      157   27,22%
      0     0      470,2653    43      646,0000   ZeroHalf: 4      159   27,20%
      0     0      470,4272    43      646,0000       Cuts: 2      162   27,18%
      0     0      470,5419    43      646,0000   ZeroHalf: 3      166   27,16%
      0     0      470,9021    43      646,0000       Cuts: 4      173   27,10%
      0     0      470,9279    43      646,0000  ZeroHalf: 10      177   27,10%
      0     0      471,0240    43      646,0000       Cuts: 6      184   27,09%
      0     0      471,0714    43      646,0000   ZeroHalf: 1      186   27,08%
      0     0        cutoff            646,0000      646,0000      186    0,00%
Elapsed time = 0,06 sec. (20,18 ticks, tree = 0,01 MB, solutions = 2)

Clique cuts applied:  9
Cover cuts applied:  12
Implied bound cuts applied:  11
Mixed integer rounding cuts applied:  4
Zero-half cuts applied:  15

Root node processing (before b&c):
  Real time             =    0,06 sec. (20,19 ticks)
Parallel b&c, 16 threads:
  Real time             =    0,00 sec. (0,00 ticks)
  Sync time (average)   =    0,00 sec.
  Wait time (average)   =    0,00 sec.
                          ------------
Total (root+branch&cut) =    0,06 sec. (20,19 ticks)
